c dimacs generated by FastEx
c f501 171
c f510 170
c f511 169
c f601 174
c f610 173
c f611 172
c f701 177
c f710 176
c f711 175
c g51 136
c g61 137
c g71 138
c s1_51 139
c s1_52 141
c s1_53 143
c s1_54 145
c s1_61 147
c s1_62 149
c s1_63 151
c s1_64 153
c s1_65 155
c s1_71 157
c s1_72 159
c s1_73 161
c s1_74 163
c s1_75 165
c s1_76 167
c s2_51 140
c s2_52 142
c s2_53 144
c s2_54 146
c s2_61 148
c s2_62 150
c s2_63 152
c s2_64 154
c s2_65 156
c s2_71 158
c s2_72 160
c s2_73 162
c s2_74 164
c s2_75 166
c s2_76 168
c x1_51 2
c x1_510 29
c x1_511 32
c x1_512 35
c x1_513 38
c x1_514 41
c x1_515 44
c x1_52 5
c x1_53 8
c x1_54 11
c x1_55 14
c x1_56 17
c x1_57 20
c x1_58 23
c x1_59 26
c x1_61 47
c x1_610 74
c x1_611 77
c x1_612 80
c x1_613 83
c x1_614 86
c x1_615 89
c x1_62 50
c x1_63 53
c x1_64 56
c x1_65 59
c x1_66 62
c x1_67 65
c x1_68 68
c x1_69 71
c x1_71 92
c x1_710 119
c x1_711 122
c x1_712 125
c x1_713 128
c x1_714 131
c x1_715 134
c x1_72 95
c x1_73 98
c x1_74 101
c x1_75 104
c x1_76 107
c x1_77 110
c x1_78 113
c x1_79 116
c x2_51 3
c x2_510 30
c x2_511 33
c x2_512 36
c x2_513 39
c x2_514 42
c x2_515 45
c x2_52 6
c x2_53 9
c x2_54 12
c x2_55 15
c x2_56 18
c x2_57 21
c x2_58 24
c x2_59 27
c x2_61 48
c x2_610 75
c x2_611 78
c x2_612 81
c x2_613 84
c x2_614 87
c x2_615 90
c x2_62 51
c x2_63 54
c x2_64 57
c x2_65 60
c x2_66 63
c x2_67 66
c x2_68 69
c x2_69 72
c x2_71 93
c x2_710 120
c x2_711 123
c x2_712 126
c x2_713 129
c x2_714 132
c x2_715 135
c x2_72 96
c x2_73 99
c x2_74 102
c x2_75 105
c x2_76 108
c x2_77 111
c x2_78 114
c x2_79 117
c x51 1
c x510 28
c x511 31
c x512 34
c x513 37
c x514 40
c x515 43
c x52 4
c x53 7
c x54 10
c x55 13
c x56 16
c x57 19
c x58 22
c x59 25
c x61 46
c x610 73
c x611 76
c x612 79
c x613 82
c x614 85
c x615 88
c x62 49
c x63 52
c x64 55
c x65 58
c x66 61
c x67 64
c x68 67
c x69 70
c x71 91
c x710 118
c x711 121
c x712 124
c x713 127
c x714 130
c x715 133
c x72 94
c x73 97
c x74 100
c x75 103
c x76 106
c x77 109
c x78 112
c x79 115
p cnf 177 991
1 2 -3 -171 0
1 -2 3 -170 0
1 -2 -3 -169 0
-1 2 -3 171 0
-1 -2 3 170 0
-1 -2 -3 169 0
-1 2 3 0
-139 -2 0
-140 -3 0
-141 -2 0
-142 -3 0
-143 -2 0
-144 -3 0
-145 2 0
-146 3 0
139 141 143 145 0
140 142 144 146 0
4 5 -6 -171 0
4 -5 6 -170 0
4 -5 -6 -169 0
-4 5 -6 171 0
-4 -5 6 170 0
-4 -5 -6 169 0
-4 5 6 0
-139 -5 0
-140 -6 0
-141 -5 0
-142 -6 0
-143 5 0
-144 6 0
-145 -5 0
-146 -6 0
139 141 143 145 0
140 142 144 146 0
7 8 -9 -171 0
7 -8 9 -170 0
7 -8 -9 -169 0
-7 8 -9 171 0
-7 -8 9 170 0
-7 -8 -9 169 0
-7 8 9 0
-139 -8 0
-140 -9 0
-141 -8 0
-142 -9 0
-143 8 0
-144 9 0
-145 8 0
-146 9 0
139 141 143 145 0
140 142 144 146 0
10 11 -12 -171 0
10 -11 12 -170 0
10 -11 -12 -169 0
-10 11 -12 171 0
-10 -11 12 170 0
-10 -11 -12 169 0
-10 11 12 0
-139 -11 0
-140 -12 0
-141 11 0
-142 12 0
-143 -11 0
-144 -12 0
-145 -11 0
-146 -12 0
139 141 143 145 0
140 142 144 146 0
13 14 -15 -171 0
13 -14 15 -170 0
13 -14 -15 -169 0
-13 14 -15 171 0
-13 -14 15 170 0
-13 -14 -15 169 0
-13 14 15 0
-139 -14 0
-140 -15 0
-141 14 0
-142 15 0
-143 -14 0
-144 -15 0
-145 14 0
-146 15 0
139 141 143 145 0
140 142 144 146 0
16 17 -18 -171 0
16 -17 18 -170 0
16 -17 -18 -169 0
-16 17 -18 171 0
-16 -17 18 170 0
-16 -17 -18 169 0
-16 17 18 0
-139 -17 0
-140 -18 0
-141 17 0
-142 18 0
-143 17 0
-144 18 0
-145 -17 0
-146 -18 0
139 141 143 145 0
140 142 144 146 0
19 20 -21 -171 0
19 -20 21 -170 0
19 -20 -21 -169 0
-19 20 -21 171 0
-19 -20 21 170 0
-19 -20 -21 169 0
-19 20 21 0
-139 -20 0
-140 -21 0
-141 20 0
-142 21 0
-143 20 0
-144 21 0
-145 20 0
-146 21 0
139 141 143 145 0
140 142 144 146 0
22 23 -24 -171 0
22 -23 24 -170 0
22 -23 -24 -169 0
-22 23 -24 171 0
-22 -23 24 170 0
-22 -23 -24 169 0
-22 23 24 0
-139 23 0
-140 24 0
-141 -23 0
-142 -24 0
-143 -23 0
-144 -24 0
-145 -23 0
-146 -24 0
139 141 143 145 0
140 142 144 146 0
25 26 -27 -171 0
25 -26 27 -170 0
25 -26 -27 -169 0
-25 26 -27 171 0
-25 -26 27 170 0
-25 -26 -27 169 0
-25 26 27 0
-139 26 0
-140 27 0
-141 -26 0
-142 -27 0
-143 -26 0
-144 -27 0
-145 26 0
-146 27 0
139 141 143 145 0
140 142 144 146 0
28 29 -30 -171 0
28 -29 30 -170 0
28 -29 -30 -169 0
-28 29 -30 171 0
-28 -29 30 170 0
-28 -29 -30 169 0
-28 29 30 0
-139 29 0
-140 30 0
-141 -29 0
-142 -30 0
-143 29 0
-144 30 0
-145 -29 0
-146 -30 0
139 141 143 145 0
140 142 144 146 0
31 32 -33 -171 0
31 -32 33 -170 0
31 -32 -33 -169 0
-31 32 -33 171 0
-31 -32 33 170 0
-31 -32 -33 169 0
-31 32 33 0
-139 32 0
-140 33 0
-141 -32 0
-142 -33 0
-143 32 0
-144 33 0
-145 32 0
-146 33 0
139 141 143 145 0
140 142 144 146 0
34 35 -36 -171 0
34 -35 36 -170 0
34 -35 -36 -169 0
-34 35 -36 171 0
-34 -35 36 170 0
-34 -35 -36 169 0
-34 35 36 0
-139 35 0
-140 36 0
-141 35 0
-142 36 0
-143 -35 0
-144 -36 0
-145 -35 0
-146 -36 0
139 141 143 145 0
140 142 144 146 0
37 38 -39 -171 0
37 -38 39 -170 0
37 -38 -39 -169 0
-37 38 -39 171 0
-37 -38 39 170 0
-37 -38 -39 169 0
-37 38 39 0
-139 38 0
-140 39 0
-141 38 0
-142 39 0
-143 -38 0
-144 -39 0
-145 38 0
-146 39 0
139 141 143 145 0
140 142 144 146 0
40 41 -42 -171 0
40 -41 42 -170 0
40 -41 -42 -169 0
-40 41 -42 171 0
-40 -41 42 170 0
-40 -41 -42 169 0
-40 41 42 0
-139 41 0
-140 42 0
-141 41 0
-142 42 0
-143 41 0
-144 42 0
-145 -41 0
-146 -42 0
139 141 143 145 0
140 142 144 146 0
43 44 -45 -171 0
43 -44 45 -170 0
43 -44 -45 -169 0
-43 44 -45 171 0
-43 -44 45 170 0
-43 -44 -45 169 0
-43 44 45 0
-139 44 0
-140 45 0
-141 44 0
-142 45 0
-143 44 0
-144 45 0
-145 44 0
-146 45 0
139 141 143 145 0
140 142 144 146 0
46 47 -48 -174 0
46 -47 48 -173 0
46 -47 -48 -172 0
-46 47 -48 174 0
-46 -47 48 173 0
-46 -47 -48 172 0
-46 47 48 0
-147 -47 0
-148 -48 0
-149 -47 0
-150 -48 0
-151 -47 0
-152 -48 0
-153 47 0
-154 48 0
-155 -47 1 0
-155 47 -1 0
-156 -48 1 0
-156 48 -1 0
147 149 151 153 155 0
148 150 152 154 156 0
49 50 -51 -174 0
49 -50 51 -173 0
49 -50 -51 -172 0
-49 50 -51 174 0
-49 -50 51 173 0
-49 -50 -51 172 0
-49 50 51 0
-147 -50 0
-148 -51 0
-149 -50 0
-150 -51 0
-151 50 0
-152 51 0
-153 -50 0
-154 -51 0
-155 -50 4 0
-155 50 -4 0
-156 -51 4 0
-156 51 -4 0
147 149 151 153 155 0
148 150 152 154 156 0
52 53 -54 -174 0
52 -53 54 -173 0
52 -53 -54 -172 0
-52 53 -54 174 0
-52 -53 54 173 0
-52 -53 -54 172 0
-52 53 54 0
-147 -53 0
-148 -54 0
-149 -53 0
-150 -54 0
-151 53 0
-152 54 0
-153 53 0
-154 54 0
-155 -53 7 0
-155 53 -7 0
-156 -54 7 0
-156 54 -7 0
147 149 151 153 155 0
148 150 152 154 156 0
55 56 -57 -174 0
55 -56 57 -173 0
55 -56 -57 -172 0
-55 56 -57 174 0
-55 -56 57 173 0
-55 -56 -57 172 0
-55 56 57 0
-147 -56 0
-148 -57 0
-149 56 0
-150 57 0
-151 -56 0
-152 -57 0
-153 -56 0
-154 -57 0
-155 -56 10 0
-155 56 -10 0
-156 -57 10 0
-156 57 -10 0
147 149 151 153 155 0
148 150 152 154 156 0
58 59 -60 -174 0
58 -59 60 -173 0
58 -59 -60 -172 0
-58 59 -60 174 0
-58 -59 60 173 0
-58 -59 -60 172 0
-58 59 60 0
-147 -59 0
-148 -60 0
-149 59 0
-150 60 0
-151 -59 0
-152 -60 0
-153 59 0
-154 60 0
-155 -59 13 0
-155 59 -13 0
-156 -60 13 0
-156 60 -13 0
147 149 151 153 155 0
148 150 152 154 156 0
61 62 -63 -174 0
61 -62 63 -173 0
61 -62 -63 -172 0
-61 62 -63 174 0
-61 -62 63 173 0
-61 -62 -63 172 0
-61 62 63 0
-147 -62 0
-148 -63 0
-149 62 0
-150 63 0
-151 62 0
-152 63 0
-153 -62 0
-154 -63 0
-155 -62 16 0
-155 62 -16 0
-156 -63 16 0
-156 63 -16 0
147 149 151 153 155 0
148 150 152 154 156 0
64 65 -66 -174 0
64 -65 66 -173 0
64 -65 -66 -172 0
-64 65 -66 174 0
-64 -65 66 173 0
-64 -65 -66 172 0
-64 65 66 0
-147 -65 0
-148 -66 0
-149 65 0
-150 66 0
-151 65 0
-152 66 0
-153 65 0
-154 66 0
-155 -65 19 0
-155 65 -19 0
-156 -66 19 0
-156 66 -19 0
147 149 151 153 155 0
148 150 152 154 156 0
67 68 -69 -174 0
67 -68 69 -173 0
67 -68 -69 -172 0
-67 68 -69 174 0
-67 -68 69 173 0
-67 -68 -69 172 0
-67 68 69 0
-147 68 0
-148 69 0
-149 -68 0
-150 -69 0
-151 -68 0
-152 -69 0
-153 -68 0
-154 -69 0
-155 -68 22 0
-155 68 -22 0
-156 -69 22 0
-156 69 -22 0
147 149 151 153 155 0
148 150 152 154 156 0
70 71 -72 -174 0
70 -71 72 -173 0
70 -71 -72 -172 0
-70 71 -72 174 0
-70 -71 72 173 0
-70 -71 -72 172 0
-70 71 72 0
-147 71 0
-148 72 0
-149 -71 0
-150 -72 0
-151 -71 0
-152 -72 0
-153 71 0
-154 72 0
-155 -71 25 0
-155 71 -25 0
-156 -72 25 0
-156 72 -25 0
147 149 151 153 155 0
148 150 152 154 156 0
73 74 -75 -174 0
73 -74 75 -173 0
73 -74 -75 -172 0
-73 74 -75 174 0
-73 -74 75 173 0
-73 -74 -75 172 0
-73 74 75 0
-147 74 0
-148 75 0
-149 -74 0
-150 -75 0
-151 74 0
-152 75 0
-153 -74 0
-154 -75 0
-155 -74 28 0
-155 74 -28 0
-156 -75 28 0
-156 75 -28 0
147 149 151 153 155 0
148 150 152 154 156 0
76 77 -78 -174 0
76 -77 78 -173 0
76 -77 -78 -172 0
-76 77 -78 174 0
-76 -77 78 173 0
-76 -77 -78 172 0
-76 77 78 0
-147 77 0
-148 78 0
-149 -77 0
-150 -78 0
-151 77 0
-152 78 0
-153 77 0
-154 78 0
-155 -77 31 0
-155 77 -31 0
-156 -78 31 0
-156 78 -31 0
147 149 151 153 155 0
148 150 152 154 156 0
79 80 -81 -174 0
79 -80 81 -173 0
79 -80 -81 -172 0
-79 80 -81 174 0
-79 -80 81 173 0
-79 -80 -81 172 0
-79 80 81 0
-147 80 0
-148 81 0
-149 80 0
-150 81 0
-151 -80 0
-152 -81 0
-153 -80 0
-154 -81 0
-155 -80 34 0
-155 80 -34 0
-156 -81 34 0
-156 81 -34 0
147 149 151 153 155 0
148 150 152 154 156 0
82 83 -84 -174 0
82 -83 84 -173 0
82 -83 -84 -172 0
-82 83 -84 174 0
-82 -83 84 173 0
-82 -83 -84 172 0
-82 83 84 0
-147 83 0
-148 84 0
-149 83 0
-150 84 0
-151 -83 0
-152 -84 0
-153 83 0
-154 84 0
-155 -83 37 0
-155 83 -37 0
-156 -84 37 0
-156 84 -37 0
147 149 151 153 155 0
148 150 152 154 156 0
85 86 -87 -174 0
85 -86 87 -173 0
85 -86 -87 -172 0
-85 86 -87 174 0
-85 -86 87 173 0
-85 -86 -87 172 0
-85 86 87 0
-147 86 0
-148 87 0
-149 86 0
-150 87 0
-151 86 0
-152 87 0
-153 -86 0
-154 -87 0
-155 -86 40 0
-155 86 -40 0
-156 -87 40 0
-156 87 -40 0
147 149 151 153 155 0
148 150 152 154 156 0
88 89 -90 -174 0
88 -89 90 -173 0
88 -89 -90 -172 0
-88 89 -90 174 0
-88 -89 90 173 0
-88 -89 -90 172 0
-88 89 90 0
-147 89 0
-148 90 0
-149 89 0
-150 90 0
-151 89 0
-152 90 0
-153 89 0
-154 90 0
-155 -89 43 0
-155 89 -43 0
-156 -90 43 0
-156 90 -43 0
147 149 151 153 155 0
148 150 152 154 156 0
91 92 -93 -177 0
91 -92 93 -176 0
91 -92 -93 -175 0
-91 92 -93 177 0
-91 -92 93 176 0
-91 -92 -93 175 0
-91 92 93 0
-157 -92 0
-158 -93 0
-159 -92 0
-160 -93 0
-161 -92 0
-162 -93 0
-163 92 0
-164 93 0
-165 -92 1 0
-165 92 -1 0
-166 -93 1 0
-166 93 -1 0
-167 -92 46 0
-167 92 -46 0
-168 -93 46 0
-168 93 -46 0
157 159 161 163 165 167 0
158 160 162 164 166 168 0
94 95 -96 -177 0
94 -95 96 -176 0
94 -95 -96 -175 0
-94 95 -96 177 0
-94 -95 96 176 0
-94 -95 -96 175 0
-94 95 96 0
-157 -95 0
-158 -96 0
-159 -95 0
-160 -96 0
-161 95 0
-162 96 0
-163 -95 0
-164 -96 0
-165 -95 4 0
-165 95 -4 0
-166 -96 4 0
-166 96 -4 0
-167 -95 49 0
-167 95 -49 0
-168 -96 49 0
-168 96 -49 0
157 159 161 163 165 167 0
158 160 162 164 166 168 0
97 98 -99 -177 0
97 -98 99 -176 0
97 -98 -99 -175 0
-97 98 -99 177 0
-97 -98 99 176 0
-97 -98 -99 175 0
-97 98 99 0
-157 -98 0
-158 -99 0
-159 -98 0
-160 -99 0
-161 98 0
-162 99 0
-163 98 0
-164 99 0
-165 -98 7 0
-165 98 -7 0
-166 -99 7 0
-166 99 -7 0
-167 -98 52 0
-167 98 -52 0
-168 -99 52 0
-168 99 -52 0
157 159 161 163 165 167 0
158 160 162 164 166 168 0
100 101 -102 -177 0
100 -101 102 -176 0
100 -101 -102 -175 0
-100 101 -102 177 0
-100 -101 102 176 0
-100 -101 -102 175 0
-100 101 102 0
-157 -101 0
-158 -102 0
-159 101 0
-160 102 0
-161 -101 0
-162 -102 0
-163 -101 0
-164 -102 0
-165 -101 10 0
-165 101 -10 0
-166 -102 10 0
-166 102 -10 0
-167 -101 55 0
-167 101 -55 0
-168 -102 55 0
-168 102 -55 0
157 159 161 163 165 167 0
158 160 162 164 166 168 0
103 104 -105 -177 0
103 -104 105 -176 0
103 -104 -105 -175 0
-103 104 -105 177 0
-103 -104 105 176 0
-103 -104 -105 175 0
-103 104 105 0
-157 -104 0
-158 -105 0
-159 104 0
-160 105 0
-161 -104 0
-162 -105 0
-163 104 0
-164 105 0
-165 -104 13 0
-165 104 -13 0
-166 -105 13 0
-166 105 -13 0
-167 -104 58 0
-167 104 -58 0
-168 -105 58 0
-168 105 -58 0
157 159 161 163 165 167 0
158 160 162 164 166 168 0
106 107 -108 -177 0
106 -107 108 -176 0
106 -107 -108 -175 0
-106 107 -108 177 0
-106 -107 108 176 0
-106 -107 -108 175 0
-106 107 108 0
-157 -107 0
-158 -108 0
-159 107 0
-160 108 0
-161 107 0
-162 108 0
-163 -107 0
-164 -108 0
-165 -107 16 0
-165 107 -16 0
-166 -108 16 0
-166 108 -16 0
-167 -107 61 0
-167 107 -61 0
-168 -108 61 0
-168 108 -61 0
157 159 161 163 165 167 0
158 160 162 164 166 168 0
109 110 -111 -177 0
109 -110 111 -176 0
109 -110 -111 -175 0
-109 110 -111 177 0
-109 -110 111 176 0
-109 -110 -111 175 0
-109 110 111 0
-157 -110 0
-158 -111 0
-159 110 0
-160 111 0
-161 110 0
-162 111 0
-163 110 0
-164 111 0
-165 -110 19 0
-165 110 -19 0
-166 -111 19 0
-166 111 -19 0
-167 -110 64 0
-167 110 -64 0
-168 -111 64 0
-168 111 -64 0
157 159 161 163 165 167 0
158 160 162 164 166 168 0
112 113 -114 -177 0
112 -113 114 -176 0
112 -113 -114 -175 0
-112 113 -114 177 0
-112 -113 114 176 0
-112 -113 -114 175 0
-112 113 114 0
-157 113 0
-158 114 0
-159 -113 0
-160 -114 0
-161 -113 0
-162 -114 0
-163 -113 0
-164 -114 0
-165 -113 22 0
-165 113 -22 0
-166 -114 22 0
-166 114 -22 0
-167 -113 67 0
-167 113 -67 0
-168 -114 67 0
-168 114 -67 0
157 159 161 163 165 167 0
158 160 162 164 166 168 0
115 116 -117 -177 0
115 -116 117 -176 0
115 -116 -117 -175 0
-115 116 -117 177 0
-115 -116 117 176 0
-115 -116 -117 175 0
-115 116 117 0
-157 116 0
-158 117 0
-159 -116 0
-160 -117 0
-161 -116 0
-162 -117 0
-163 116 0
-164 117 0
-165 -116 25 0
-165 116 -25 0
-166 -117 25 0
-166 117 -25 0
-167 -116 70 0
-167 116 -70 0
-168 -117 70 0
-168 117 -70 0
157 159 161 163 165 167 0
158 160 162 164 166 168 0
118 119 -120 -177 0
118 -119 120 -176 0
118 -119 -120 -175 0
-118 119 -120 177 0
-118 -119 120 176 0
-118 -119 -120 175 0
-118 119 120 0
-157 119 0
-158 120 0
-159 -119 0
-160 -120 0
-161 119 0
-162 120 0
-163 -119 0
-164 -120 0
-165 -119 28 0
-165 119 -28 0
-166 -120 28 0
-166 120 -28 0
-167 -119 73 0
-167 119 -73 0
-168 -120 73 0
-168 120 -73 0
157 159 161 163 165 167 0
158 160 162 164 166 168 0
121 122 -123 -177 0
121 -122 123 -176 0
121 -122 -123 -175 0
-121 122 -123 177 0
-121 -122 123 176 0
-121 -122 -123 175 0
-121 122 123 0
-157 122 0
-158 123 0
-159 -122 0
-160 -123 0
-161 122 0
-162 123 0
-163 122 0
-164 123 0
-165 -122 31 0
-165 122 -31 0
-166 -123 31 0
-166 123 -31 0
-167 -122 76 0
-167 122 -76 0
-168 -123 76 0
-168 123 -76 0
157 159 161 163 165 167 0
158 160 162 164 166 168 0
124 125 -126 -177 0
124 -125 126 -176 0
124 -125 -126 -175 0
-124 125 -126 177 0
-124 -125 126 176 0
-124 -125 -126 175 0
-124 125 126 0
-157 125 0
-158 126 0
-159 125 0
-160 126 0
-161 -125 0
-162 -126 0
-163 -125 0
-164 -126 0
-165 -125 34 0
-165 125 -34 0
-166 -126 34 0
-166 126 -34 0
-167 -125 79 0
-167 125 -79 0
-168 -126 79 0
-168 126 -79 0
157 159 161 163 165 167 0
158 160 162 164 166 168 0
127 128 -129 -177 0
127 -128 129 -176 0
127 -128 -129 -175 0
-127 128 -129 177 0
-127 -128 129 176 0
-127 -128 -129 175 0
-127 128 129 0
-157 128 0
-158 129 0
-159 128 0
-160 129 0
-161 -128 0
-162 -129 0
-163 128 0
-164 129 0
-165 -128 37 0
-165 128 -37 0
-166 -129 37 0
-166 129 -37 0
-167 -128 82 0
-167 128 -82 0
-168 -129 82 0
-168 129 -82 0
157 159 161 163 165 167 0
158 160 162 164 166 168 0
130 131 -132 -177 0
130 -131 132 -176 0
130 -131 -132 -175 0
-130 131 -132 177 0
-130 -131 132 176 0
-130 -131 -132 175 0
-130 131 132 0
-157 131 0
-158 132 0
-159 131 0
-160 132 0
-161 131 0
-162 132 0
-163 -131 0
-164 -132 0
-165 -131 40 0
-165 131 -40 0
-166 -132 40 0
-166 132 -40 0
-167 -131 85 0
-167 131 -85 0
-168 -132 85 0
-168 132 -85 0
157 159 161 163 165 167 0
158 160 162 164 166 168 0
133 134 -135 -177 0
133 -134 135 -176 0
133 -134 -135 -175 0
-133 134 -135 177 0
-133 -134 135 176 0
-133 -134 -135 175 0
-133 134 135 0
-157 134 0
-158 135 0
-159 134 0
-160 135 0
-161 134 0
-162 135 0
-163 134 0
-164 135 0
-165 -134 43 0
-165 134 -43 0
-166 -135 43 0
-166 135 -43 0
-167 -134 88 0
-167 134 -88 0
-168 -135 88 0
-168 135 -88 0
157 159 161 163 165 167 0
158 160 162 164 166 168 0
-136 -1 0
-136 -4 0
-136 -7 0
-136 -10 0
-136 -13 0
-136 -16 0
-136 -19 0
-136 -22 0
-136 -25 0
-136 -28 0
-136 -31 0
-136 -34 0
-136 -37 0
-136 -40 0
-136 43 0
-137 -46 0
-137 -49 0
-137 -52 0
-137 -55 0
-137 -58 0
-137 -61 0
-137 -64 0
-137 -67 0
-137 -70 0
-137 -73 0
-137 -76 0
-137 -79 0
-137 -82 0
-137 -85 0
-137 88 0
-138 -91 0
-138 -94 0
-138 -97 0
-138 -100 0
-138 -103 0
-138 -106 0
-138 -109 0
-138 -112 0
-138 -115 0
-138 -118 0
-138 -121 0
-138 -124 0
-138 -127 0
-138 -130 0
-138 133 0
136 137 138 0
